
Log started (V20.1.0.0) Tue Aug  9 09:22:19 2022

No problem exists.

Problem 'pp.lp' read.
Read time = 0.00 sec. (0.00 ticks)
Version identifier: 20.1.0.0 | 2020-11-10 | 9bedb6d68
Tried aggregator 1 time.
LP Presolve eliminated 2 rows and 1 columns.
Aggregator did 1 substitutions.
All rows and columns eliminated.
Presolve time = 0.00 sec. (0.00 ticks)

Dual simplex - Optimal:  Objective =  2.7000000000e+01
Solution time =    0.00 sec.  Iterations = 0 (0)
Deterministic time = 0.00 ticks  (2.51 ticks/sec)


Variable Name           Solution Value
x1                            8.000000
x2                           19.000000
